Welcome to the CBC MILP Solver 
Version: Trunk
Build Date: Apr 16 2020 

Starting solution of the Linear programming relaxation problem using Primal Simplex

Using Python-MIP package version 1.8.1
Machines:  4 Jobs:  4
Order: 
Job  0 : machine 0 ( 10 ) machine 3 ( 1 ) machine 2 ( 6 ) machine 1 ( 7 ) 
Job  1 : machine 0 ( 1 ) machine 3 ( 7 ) machine 1 ( 5 ) machine 2 ( 8 ) 
Job  2 : machine 3 ( 9 ) machine 2 ( 3 ) machine 1 ( 7 ) machine 0 ( 1 ) 
Job  3 : machine 1 ( 7 ) machine 3 ( 3 ) machine 0 ( 9 ) machine 2 ( 10 ) 
K:  44
Job  0 , e: machine  0 ( 0 ) machine  1 ( 17 ) machine  2 ( 11 ) machine  3 ( 10 ) 
Job  1 , e: machine  0 ( 0 ) machine  1 ( 8 ) machine  2 ( 13 ) machine  3 ( 1 ) 
Job  2 , e: machine  0 ( 19 ) machine  1 ( 12 ) machine  2 ( 9 ) machine  3 ( 0 ) 
Job  3 , e: machine  0 ( 10 ) machine  1 ( 0 ) machine  2 ( 19 ) machine  3 ( 7 ) 
Job  0 , f: machine  0 ( 14 ) machine  1 ( 0 ) machine  2 ( 7 ) machine  3 ( 13 ) 
Job  1 , f: machine  0 ( 20 ) machine  1 ( 8 ) machine  2 ( 0 ) machine  3 ( 13 ) 
Job  2 , f: machine  0 ( 0 ) machine  1 ( 1 ) machine  2 ( 8 ) machine  3 ( 11 ) 
Job  3 , f: machine  0 ( 10 ) machine  1 ( 22 ) machine  2 ( 0 ) machine  3 ( 19 ) 
EST and LST:
Job: 0 Machine: 0 EST: 0 LST: 20
Job: 0 Machine: 1 EST: 17 LST: 37
Job: 0 Machine: 2 EST: 11 LST: 31
Job: 0 Machine: 3 EST: 10 LST: 30
Job: 1 Machine: 0 EST: 0 LST: 23
Job: 1 Machine: 1 EST: 8 LST: 31
Job: 1 Machine: 2 EST: 13 LST: 36
Job: 1 Machine: 3 EST: 1 LST: 24
Job: 2 Machine: 0 EST: 19 LST: 43
Job: 2 Machine: 1 EST: 12 LST: 36
Job: 2 Machine: 2 EST: 9 LST: 33
Job: 2 Machine: 3 EST: 0 LST: 24
Job: 3 Machine: 0 EST: 10 LST: 25
Job: 3 Machine: 1 EST: 0 LST: 15
Job: 3 Machine: 2 EST: 19 LST: 34
Job: 3 Machine: 3 EST: 7 LST: 22
Order:
Job: 0 Machine: 0 = 0 
Job: 0 Machine: 1 = 3 
Job: 0 Machine: 2 = 2 
Job: 0 Machine: 3 = 1 
Job: 1 Machine: 0 = 0 
Job: 1 Machine: 1 = 2 
Job: 1 Machine: 2 = 3 
Job: 1 Machine: 3 = 1 
Job: 2 Machine: 0 = 3 
Job: 2 Machine: 1 = 2 
Job: 2 Machine: 2 = 1 
Job: 2 Machine: 3 = 0 
Job: 3 Machine: 0 = 2 
Job: 3 Machine: 1 = 0 
Job: 3 Machine: 2 = 3 
Job: 3 Machine: 3 = 1 
Distances:
Job 0, Machine 0 -> Machine 3: distance 10
Job 0, Machine 0 -> Machine 2: distance 11
Job 0, Machine 0 -> Machine 1: distance 17
Job 0, Machine 3 -> Machine 2: distance 1
Job 0, Machine 3 -> Machine 1: distance 7
Job 0, Machine 2 -> Machine 1: distance 6
Job 1, Machine 0 -> Machine 3: distance 1
Job 1, Machine 0 -> Machine 1: distance 8
Job 1, Machine 0 -> Machine 2: distance 13
Job 1, Machine 3 -> Machine 1: distance 7
Job 1, Machine 3 -> Machine 2: distance 12
Job 1, Machine 1 -> Machine 2: distance 5
Job 2, Machine 3 -> Machine 2: distance 9
Job 2, Machine 3 -> Machine 1: distance 12
Job 2, Machine 3 -> Machine 0: distance 19
Job 2, Machine 2 -> Machine 1: distance 3
Job 2, Machine 2 -> Machine 0: distance 10
Job 2, Machine 1 -> Machine 0: distance 7
Job 3, Machine 1 -> Machine 3: distance 7
Job 3, Machine 1 -> Machine 0: distance 10
Job 3, Machine 1 -> Machine 2: distance 19
Job 3, Machine 3 -> Machine 0: distance 3
Job 3, Machine 3 -> Machine 2: distance 12
Job 3, Machine 0 -> Machine 2: distance 9
McCormic linearization
[(1, 2), (3, 2), (0, 0), (3, 3), (2, 0), (2, 3), (1, 0), (0, 2)]
obj:  0.6000000000000001
solutions:  1
+ x(0,0) + 0.10000000000000002x(1,0) 
C:  29.0
x(0,0) = 0.73	 x(0,1) = 19.06	 x(0,2) = 11.73	 x(0,3) = 10.73	 
x(1,0) = 2.73	 x(1,1) = 10.73	 x(1,2) = 20.27	 x(1,3) = 3.73	 
x(2,0) = 24.24	 x(2,1) = 17.24	 x(2,2) = 14.24	 x(2,3) = 5.24	 
x(3,0) = 10.00	 x(3,1) = 0.00	 x(3,2) = 19.00	 x(3,3) = 7.00	 
y(0,1,0) = 0.13	 y(1,0,0) = 0.87	 
y(0,2,0) = 0.56	 y(2,0,0) = 0.44	 
y(0,3,0) = 0.96	 y(3,0,0) = 0.04	 
y(1,2,0) = 0.51	 y(2,1,0) = 0.49	 
y(1,3,0) = 0.74	 y(3,1,0) = 0.26	 
y(2,3,0) = 0.00	 y(3,2,0) = 1.00	 
y(0,1,1) = 0.00	 y(1,0,1) = 1.00	 
y(0,2,1) = 0.20	 y(2,0,1) = 0.80	 
y(0,3,1) = 0.00	 y(3,0,1) = 1.00	 
y(1,2,1) = 0.39	 y(2,1,1) = 0.61	 
y(1,3,1) = 0.16	 y(3,1,1) = 0.84	 
y(2,3,1) = 0.00	 y(3,2,1) = 1.00	 
y(0,1,2) = 0.76	 y(1,0,2) = 0.24	 
y(0,2,2) = 0.46	 y(2,0,2) = 0.54	 
y(0,3,2) = 0.93	 y(3,0,2) = 0.07	 
y(1,2,2) = 0.00	 y(2,1,2) = 1.00	 
y(1,3,2) = 0.28	 y(3,1,2) = 0.72	 
y(2,3,2) = 0.92	 y(3,2,2) = 0.08	 
y(0,1,3) = 0.00	 y(1,0,3) = 1.00	 
y(0,2,3) = 0.15	 y(2,0,3) = 0.85	 
y(0,3,3) = 0.04	 y(3,0,3) = 0.96	 
y(1,2,3) = 0.33	 y(2,1,3) = 0.67	 
y(1,3,3) = 0.26	 y(3,1,3) = 0.74	 
y(2,3,3) = 0.19	 y(3,2,3) = 0.81	 
obj:  0.8669238828207138
solutions:  1
+ 0.014930399640772342x(1,2) + 0.02346205657835654x(3,2) + 0.010103277952402323x(0,2) 
[(1, 2), (3, 2), (0, 0), (1, 3), (2, 1), (2, 0), (1, 1), (2, 3), (2, 2), (1, 0), (0, 2)]
cliques:  1 mip: 56
C:  30.629629629629623
x(0,0) = 0.93	 x(0,1) = 23.63	 x(0,2) = 17.63	 x(0,3) = 10.93	 
x(1,0) = 0.70	 x(1,1) = 17.63	 x(1,2) = 22.63	 x(1,3) = 10.63	 
x(2,0) = 20.93	 x(2,1) = 13.93	 x(2,2) = 10.93	 x(2,3) = 1.93	 
x(3,0) = 11.63	 x(3,1) = 0.00	 x(3,2) = 20.63	 x(3,3) = 8.63	 
y(0,1,0) = 0.03	 y(1,0,0) = 0.97	 
y(0,2,0) = 0.66	 y(2,0,0) = 0.34	 
y(0,3,0) = 0.95	 y(3,0,0) = 0.05	 
y(1,2,0) = 0.48	 y(2,1,0) = 0.52	 
y(1,3,0) = 0.59	 y(3,1,0) = 0.41	 
y(2,3,0) = 0.00	 y(3,2,0) = 1.00	 
y(0,1,1) = 0.16	 y(1,0,1) = 0.84	 
y(0,2,1) = 0.15	 y(2,0,1) = 0.85	 
y(0,3,1) = 0.00	 y(3,0,1) = 1.00	 
y(1,2,1) = 0.09	 y(2,1,1) = 0.91	 
y(1,3,1) = 0.37	 y(3,1,1) = 0.63	 
y(2,3,1) = 0.00	 y(3,2,1) = 1.00	 
y(0,1,2) = 0.72	 y(1,0,2) = 0.28	 
y(0,2,2) = 0.04	 y(2,0,2) = 0.96	 
y(0,3,2) = 0.75	 y(3,0,2) = 0.25	 
y(1,2,2) = 0.00	 y(2,1,2) = 1.00	 
y(1,3,2) = 0.26	 y(3,1,2) = 0.74	 
y(2,3,2) = 0.70	 y(3,2,2) = 0.30	 
y(0,1,3) = 0.32	 y(1,0,3) = 0.68	 
y(0,2,3) = 0.00	 y(2,0,3) = 1.00	 
y(0,3,3) = 0.05	 y(3,0,3) = 0.95	 
y(1,2,3) = 0.01	 y(2,1,3) = 0.99	 
y(1,3,3) = 0.63	 y(3,1,3) = 0.37	 
y(2,3,3) = 0.39	 y(3,2,3) = 0.61	 
obj:  0.9837276247237935
solutions:  1
+ 0.00656814449917898x(1,3) + 0.10235358511220581x(3,3) + 0.015873015873015872x(2,3) 
[(1, 3), (0, 0), (3, 3), (3, 0), (3, 1), (2, 0), (2, 3), (1, 0), (1, 1)]
cliques:  1 mip: 57
C:  33.024009439139505
x(0,0) = 2.96	 x(0,1) = 26.02	 x(0,2) = 20.02	 x(0,3) = 14.55	 
x(1,0) = 1.96	 x(1,1) = 18.56	 x(1,2) = 23.56	 x(1,3) = 11.56	 
x(2,0) = 32.02	 x(2,1) = 25.02	 x(2,2) = 22.02	 x(2,3) = 13.02	 
x(3,0) = 10.01	 x(3,1) = 0.01	 x(3,2) = 19.01	 x(3,3) = 7.01	 
y(0,1,0) = 0.00	 y(1,0,0) = 1.00	 
y(0,2,0) = 0.68	 y(2,0,0) = 0.32	 
y(0,3,0) = 0.85	 y(3,0,0) = 0.15	 
y(1,2,0) = 0.75	 y(2,1,0) = 0.25	 
y(1,3,0) = 0.50	 y(3,1,0) = 0.50	 
y(2,3,0) = 0.00	 y(3,2,0) = 1.00	 
y(0,1,1) = 0.00	 y(1,0,1) = 1.00	 
y(0,2,1) = 0.23	 y(2,0,1) = 0.77	 
y(0,3,1) = 0.00	 y(3,0,1) = 1.00	 
y(1,2,1) = 0.38	 y(2,1,1) = 0.62	 
y(1,3,1) = 0.05	 y(3,1,1) = 0.95	 
y(2,3,1) = 0.00	 y(3,2,1) = 1.00	 
y(0,1,2) = 0.82	 y(1,0,2) = 0.18	 
y(0,2,2) = 0.35	 y(2,0,2) = 0.65	 
y(0,3,2) = 0.61	 y(3,0,2) = 0.39	 
y(1,2,2) = 0.06	 y(2,1,2) = 0.94	 
y(1,3,2) = 0.50	 y(3,1,2) = 0.50	 
y(2,3,2) = 0.65	 y(3,2,2) = 0.35	 
y(0,1,3) = 0.19	 y(1,0,3) = 0.81	 
y(0,2,3) = 0.32	 y(2,0,3) = 0.68	 
y(0,3,3) = 0.23	 y(3,0,3) = 0.77	 
y(1,2,3) = 0.33	 y(2,1,3) = 0.67	 
y(1,3,3) = 0.16	 y(3,1,3) = 0.84	 
y(2,3,3) = 0.00	 y(3,2,3) = 1.00	 
obj:  0.9703098395929701
solutions:  1
+ 0.0055248618784530384x(1,2) + 0.04419889502762431x(3,2) 
[(1, 2), (3, 2), (3, 0), (2, 1), (1, 1), (2, 2), (1, 0), (0, 2)]
cliques:  1 mip: 65
C:  33.708332445596824
x(0,0) = 1.00	 x(0,1) = 26.71	 x(0,2) = 20.71	 x(0,3) = 11.00	 
x(1,0) = 0.00	 x(1,1) = 10.71	 x(1,2) = 15.71	 x(1,3) = 3.71	 
x(2,0) = 32.71	 x(2,1) = 19.71	 x(2,2) = 16.71	 x(2,3) = 7.71	 
x(3,0) = 14.71	 x(3,1) = 0.00	 x(3,2) = 23.71	 x(3,3) = 8.34	 
y(0,1,0) = 0.00	 y(1,0,0) = 1.00	 
y(0,2,0) = 0.75	 y(2,0,0) = 0.25	 
y(0,3,0) = 0.75	 y(3,0,0) = 0.25	 
y(1,2,0) = 0.92	 y(2,1,0) = 0.08	 
y(1,3,0) = 0.70	 y(3,1,0) = 0.30	 
y(2,3,0) = 0.00	 y(3,2,0) = 1.00	 
y(0,1,1) = 0.00	 y(1,0,1) = 1.00	 
y(0,2,1) = 0.00	 y(2,0,1) = 1.00	 
y(0,3,1) = 0.00	 y(3,0,1) = 1.00	 
y(1,2,1) = 1.00	 y(2,1,1) = 0.00	 
y(1,3,1) = 0.31	 y(3,1,1) = 0.69	 
y(2,3,1) = 0.00	 y(3,2,1) = 1.00	 
y(0,1,2) = 0.26	 y(1,0,2) = 0.74	 
y(0,2,2) = 0.01	 y(2,0,2) = 0.99	 
y(0,3,2) = 0.49	 y(3,0,2) = 0.51	 
y(1,2,2) = 0.17	 y(2,1,2) = 0.83	 
y(1,3,2) = 1.00	 y(3,1,2) = 0.00	 
y(2,3,2) = 0.82	 y(3,2,2) = 0.18	 
y(0,1,3) = 0.02	 y(1,0,3) = 0.98	 
y(0,2,3) = 0.25	 y(2,0,3) = 0.75	 
y(0,3,3) = 0.02	 y(3,0,3) = 0.98	 
y(1,2,3) = 0.60	 y(2,1,3) = 0.40	 
y(1,3,3) = 0.90	 y(3,1,3) = 0.10	 
y(2,3,3) = 0.15	 y(3,2,3) = 0.85	 
obj:  1.0070843258954953
erro
[(1, 2), (3, 2), (1, 3), (3, 0), (3, 1), (1, 1), (2, 3), (1, 0), (0, 2), (0, 3)]
cliques:  0 mip: 66
C:  33.99999795977583
x(0,0) = 1.00	 x(0,1) = 27.00	 x(0,2) = 21.00	 x(0,3) = 11.23	 
x(1,0) = 0.00	 x(1,1) = 10.95	 x(1,2) = 18.32	 x(1,3) = 2.41	 
x(2,0) = 33.00	 x(2,1) = 22.42	 x(2,2) = 18.00	 x(2,3) = 8.96	 
x(3,0) = 11.23	 x(3,1) = 1.23	 x(3,2) = 22.91	 x(3,3) = 8.23	 
y(0,1,0) = 0.00	 y(1,0,0) = 1.00	 
y(0,2,0) = 0.78	 y(2,0,0) = 0.22	 
y(0,3,0) = 1.00	 y(3,0,0) = 0.00	 
y(1,2,0) = 1.00	 y(2,1,0) = -0.00	 
y(1,3,0) = 0.85	 y(3,1,0) = 0.15	 
y(2,3,0) = 0.00	 y(3,2,0) = 1.00	 
y(0,1,1) = 0.00	 y(1,0,1) = 1.00	 
y(0,2,1) = 0.40	 y(2,0,1) = 0.60	 
y(0,3,1) = 0.00	 y(3,0,1) = 1.00	 
y(1,2,1) = 1.00	 y(2,1,1) = 0.00	 
y(1,3,1) = 0.23	 y(3,1,1) = 0.77	 
y(2,3,1) = 0.00	 y(3,2,1) = 1.00	 
y(0,1,2) = 0.21	 y(1,0,2) = 0.79	 
y(0,2,2) = 0.00	 y(2,0,2) = 1.00	 
y(0,3,2) = 0.36	 y(3,0,2) = 0.64	 
y(1,2,2) = 0.12	 y(2,1,2) = 0.88	 
y(1,3,2) = 0.86	 y(3,1,2) = 0.14	 
y(2,3,2) = 0.92	 y(3,2,2) = 0.08	 
y(0,1,3) = 0.00	 y(1,0,3) = 1.00	 
y(0,2,3) = 0.70	 y(2,0,3) = 0.30	 
y(0,3,3) = 0.00	 y(3,0,3) = 1.00	 
y(1,2,3) = 0.99	 y(2,1,3) = 0.01	 
y(1,3,3) = 0.95	 y(3,1,3) = 0.05	 
y(2,3,3) = 0.09	 y(3,2,3) = 0.91	 
obj:  1.042614171517676
erro
[(0, 1), (1, 2), (3, 2), (0, 0), (3, 1), (2, 1), (2, 0), (1, 1), (2, 3), (0, 3), (0, 2)]
cliques:  0 mip: 71
C:  34.228434968688546
x(0,0) = 1.00	 x(0,1) = 24.73	 x(0,2) = 18.73	 x(0,3) = 11.23	 
x(1,0) = 0.00	 x(1,1) = 11.23	 x(1,2) = 16.23	 x(1,3) = 2.09	 
x(2,0) = 33.23	 x(2,1) = 22.47	 x(2,2) = 18.09	 x(2,3) = 9.09	 
x(3,0) = 12.85	 x(3,1) = 0.62	 x(3,2) = 24.23	 x(3,3) = 8.23	 
y(0,1,0) = 0.00	 y(1,0,0) = 1.00	 
y(0,2,0) = 0.90	 y(2,0,0) = 0.10	 
y(0,3,0) = 0.88	 y(3,0,0) = 0.12	 
y(1,2,0) = 0.98	 y(2,1,0) = 0.02	 
y(1,3,0) = 0.86	 y(3,1,0) = 0.14	 
y(2,3,0) = 0.00	 y(3,2,0) = 1.00	 
y(0,1,1) = 0.00	 y(1,0,1) = 1.00	 
y(0,2,1) = 0.37	 y(2,0,1) = 0.63	 
y(0,3,1) = 0.00	 y(3,0,1) = 1.00	 
y(1,2,1) = 1.00	 y(2,1,1) = 0.00	 
y(1,3,1) = 0.15	 y(3,1,1) = 0.85	 
y(2,3,1) = 0.00	 y(3,2,1) = 1.00	 
y(0,1,2) = 0.39	 y(1,0,2) = 0.61	 
y(0,2,2) = 0.11	 y(2,0,2) = 0.89	 
y(0,3,2) = 0.93	 y(3,0,2) = 0.07	 
y(1,2,2) = 0.21	 y(2,1,2) = 0.79	 
y(1,3,2) = 1.00	 y(3,1,2) = 0.00	 
y(2,3,2) = 0.93	 y(3,2,2) = 0.07	 
y(0,1,3) = 0.00	 y(1,0,3) = 1.00	 
y(0,2,3) = 0.72	 y(2,0,3) = 0.28	 
y(0,3,3) = 0.00	 y(3,0,3) = 1.00	 
y(1,2,3) = 1.00	 y(2,1,3) = 0.00	 
y(1,3,3) = 0.95	 y(3,1,3) = 0.05	 
y(2,3,3) = 0.11	 y(3,2,3) = 0.89	 
obj:  1.108467935340278
erro
[(1, 2), (0, 1), (3, 0), (1, 0), (3, 1), (2, 1), (1, 1), (2, 3), (2, 2), (0, 3), (0, 2)]
cliques:  0 mip: 90
C:  34.99999650124575
x(0,0) = 1.00	 x(0,1) = 27.54	 x(0,2) = 21.54	 x(0,3) = 11.03	 
x(1,0) = 0.00	 x(1,1) = 8.54	 x(1,2) = 13.54	 x(1,3) = 1.54	 
x(2,0) = 34.00	 x(2,1) = 22.70	 x(2,2) = 18.10	 x(2,3) = 9.10	 
x(3,0) = 13.69	 x(3,1) = 1.26	 x(3,2) = 24.73	 x(3,3) = 8.26	 
y(0,1,0) = 0.26	 y(1,0,0) = 0.74	 
y(0,2,0) = 0.83	 y(2,0,0) = 0.17	 
y(0,3,0) = 0.82	 y(3,0,0) = 0.18	 
y(1,2,0) = 0.92	 y(2,1,0) = 0.08	 
y(1,3,0) = 0.67	 y(3,1,0) = 0.33	 
y(2,3,0) = 0.00	 y(3,2,0) = 1.00	 
y(0,1,1) = 0.00	 y(1,0,1) = 1.00	 
y(0,2,1) = 0.28	 y(2,0,1) = 0.72	 
y(0,3,1) = 0.00	 y(3,0,1) = 1.00	 
y(1,2,1) = 1.00	 y(2,1,1) = 0.00	 
y(1,3,1) = 0.00	 y(3,1,1) = 1.00	 
y(2,3,1) = 0.00	 y(3,2,1) = 1.00	 
y(0,1,2) = 0.00	 y(1,0,2) = 1.00	 
y(0,2,2) = 0.03	 y(2,0,2) = 0.97	 
y(0,3,2) = 0.77	 y(3,0,2) = 0.23	 
y(1,2,2) = 0.33	 y(2,1,2) = 0.67	 
y(1,3,2) = 1.00	 y(3,1,2) = 0.00	 
y(2,3,2) = 0.84	 y(3,2,2) = 0.16	 
y(0,1,3) = 0.00	 y(1,0,3) = 1.00	 
y(0,2,3) = 0.62	 y(2,0,3) = 0.38	 
y(0,3,3) = 0.02	 y(3,0,3) = 0.98	 
y(1,2,3) = 1.00	 y(2,1,3) = 0.00	 
y(1,3,3) = 0.99	 y(3,1,3) = 0.01	 
y(2,3,3) = 0.09	 y(3,2,3) = 0.91	 
obj:  0.9777142697759645
solutions:  1
+ 0.022759601706970122x(1,2) + 0.017780938833570417x(3,2) + 0.010668563300142247x(0,2) 
[(1, 2), (0, 1), (3, 2), (0, 0), (3, 0), (2, 1), (2, 3), (2, 2), (1, 0), (0, 2), (0, 3)]
cliques:  1 mip: 79
C:  34.99999650124571
x(0,0) = 1.00	 x(0,1) = 25.48	 x(0,2) = 19.00	 x(0,3) = 11.00	 
x(1,0) = 0.02	 x(1,1) = 8.39	 x(1,2) = 15.50	 x(1,3) = 1.33	 
x(2,0) = 34.00	 x(2,1) = 21.88	 x(2,2) = 18.44	 x(2,3) = 8.33	 
x(3,0) = 13.83	 x(3,1) = 1.39	 x(3,2) = 25.00	 x(3,3) = 8.39	 
y(0,1,0) = 0.01	 y(1,0,0) = 0.99	 
y(0,2,0) = 0.83	 y(2,0,0) = 0.17	 
y(0,3,0) = 0.81	 y(3,0,0) = 0.19	 
y(1,2,0) = 0.79	 y(2,1,0) = 0.21	 
y(1,3,0) = 0.92	 y(3,1,0) = 0.08	 
y(2,3,0) = 0.00	 y(3,2,0) = 1.00	 
y(0,1,1) = 0.00	 y(1,0,1) = 1.00	 
y(0,2,1) = 0.15	 y(2,0,1) = 0.85	 
y(0,3,1) = 0.00	 y(3,0,1) = 1.00	 
y(1,2,1) = 1.00	 y(2,1,1) = 0.00	 
y(1,3,1) = 0.00	 y(3,1,1) = 1.00	 
y(2,3,1) = 0.00	 y(3,2,1) = 1.00	 
y(0,1,2) = 0.14	 y(1,0,2) = 0.86	 
y(0,2,2) = 0.20	 y(2,0,2) = 0.80	 
y(0,3,2) = 1.00	 y(3,0,2) = 0.00	 
y(1,2,2) = 0.26	 y(2,1,2) = 0.74	 
y(1,3,2) = 1.00	 y(3,1,2) = 0.00	 
y(2,3,2) = 0.84	 y(3,2,2) = 0.16	 
y(0,1,3) = 0.00	 y(1,0,3) = 1.00	 
y(0,2,3) = 0.73	 y(2,0,3) = 0.27	 
y(0,3,3) = 0.03	 y(3,0,3) = 0.97	 
y(1,2,3) = 1.00	 y(2,1,3) = 0.00	 
y(1,3,3) = 1.00	 y(3,1,3) = 0.00	 
y(2,3,3) = 0.31	 y(3,2,3) = 0.69	 
obj:  1.0024878944990852
erro
[(1, 2), (0, 0), (3, 3), (3, 0), (1, 0), (2, 0), (2, 3), (2, 2), (0, 3), (0, 2)]
cliques:  0 mip: 79
C:  34.99999643369344
x(0,0) = 0.95	 x(0,1) = 25.01	 x(0,2) = 15.78	 x(0,3) = 10.95	 
x(1,0) = 0.47	 x(1,1) = 8.85	 x(1,2) = 21.78	 x(1,3) = 1.47	 
x(2,0) = 34.00	 x(2,1) = 21.90	 x(2,2) = 18.90	 x(2,3) = 6.96	 
x(3,0) = 11.85	 x(3,1) = 1.85	 x(3,2) = 21.97	 x(3,3) = 8.85	 
y(0,1,0) = 0.32	 y(1,0,0) = 0.68	 
y(0,2,0) = 0.95	 y(2,0,0) = 0.05	 
y(0,3,0) = 0.94	 y(3,0,0) = 0.06	 
y(1,2,0) = 0.78	 y(2,1,0) = 0.22	 
y(1,3,0) = 0.60	 y(3,1,0) = 0.40	 
y(2,3,0) = 0.00	 y(3,2,0) = 1.00	 
y(0,1,1) = 0.00	 y(1,0,1) = 1.00	 
y(0,2,1) = 0.15	 y(2,0,1) = 0.85	 
y(0,3,1) = 0.00	 y(3,0,1) = 1.00	 
y(1,2,1) = 1.00	 y(2,1,1) = 0.00	 
y(1,3,1) = 0.00	 y(3,1,1) = 1.00	 
y(2,3,1) = 0.00	 y(3,2,1) = 1.00	 
y(0,1,2) = 1.00	 y(1,0,2) = 0.00	 
y(0,2,2) = 0.24	 y(2,0,2) = 0.76	 
y(0,3,2) = 1.00	 y(3,0,2) = 0.00	 
y(1,2,2) = 0.01	 y(2,1,2) = 0.99	 
y(1,3,2) = 0.69	 y(3,1,2) = 0.31	 
y(2,3,2) = 1.00	 y(3,2,2) = 0.00	 
y(0,1,3) = 0.02	 y(1,0,3) = 0.98	 
y(0,2,3) = 0.37	 y(2,0,3) = 0.63	 
y(0,3,3) = 0.06	 y(3,0,3) = 0.94	 
y(1,2,3) = 0.95	 y(2,1,3) = 0.05	 
y(1,3,3) = 0.97	 y(3,1,3) = 0.03	 
y(2,3,3) = 0.20	 y(3,2,3) = 0.80	 
obj:  1.0000000000000002
erro
[(1, 2), (3, 2), (0, 0), (3, 0), (2, 0), (2, 3), (2, 2), (1, 0), (0, 2), (0, 3)]
cliques:  0 mip: 70
C:  34.99999643369345
x(0,0) = 1.12	 x(0,1) = 25.04	 x(0,2) = 15.87	 x(0,3) = 11.12	 
x(1,0) = 0.30	 x(1,1) = 8.65	 x(1,2) = 21.87	 x(1,3) = 1.30	 
x(2,0) = 34.00	 x(2,1) = 21.89	 x(2,2) = 18.87	 x(2,3) = 6.72	 
x(3,0) = 11.65	 x(3,1) = 1.65	 x(3,2) = 21.87	 x(3,3) = 8.65	 
y(0,1,0) = 0.01	 y(1,0,0) = 0.99	 
y(0,2,0) = 0.95	 y(2,0,0) = 0.05	 
y(0,3,0) = 0.97	 y(3,0,0) = 0.03	 
y(1,2,0) = 0.79	 y(2,1,0) = 0.21	 
y(1,3,0) = 0.96	 y(3,1,0) = 0.04	 
y(2,3,0) = 0.00	 y(3,2,0) = 1.00	 
y(0,1,1) = 0.00	 y(1,0,1) = 1.00	 
y(0,2,1) = 0.15	 y(2,0,1) = 0.85	 
y(0,3,1) = 0.00	 y(3,0,1) = 1.00	 
y(1,2,1) = 1.00	 y(2,1,1) = 0.00	 
y(1,3,1) = 0.00	 y(3,1,1) = 1.00	 
y(2,3,1) = 0.00	 y(3,2,1) = 1.00	 
y(0,1,2) = 1.00	 y(1,0,2) = 0.00	 
y(0,2,2) = 0.24	 y(2,0,2) = 0.76	 
y(0,3,2) = 1.00	 y(3,0,2) = 0.00	 
y(1,2,2) = 0.00	 y(2,1,2) = 1.00	 
y(1,3,2) = 0.68	 y(3,1,2) = 0.32	 
y(2,3,2) = 1.00	 y(3,2,2) = 0.00	 
y(0,1,3) = 0.02	 y(1,0,3) = 0.98	 
y(0,2,3) = 0.42	 y(2,0,3) = 0.58	 
y(0,3,3) = 0.03	 y(3,0,3) = 0.97	 
y(1,2,3) = 0.95	 y(2,1,3) = 0.05	 
y(1,3,3) = 0.98	 y(3,1,3) = 0.02	 
y(2,3,3) = 0.20	 y(3,2,3) = 0.80	 
obj:  0.9939416021743879
solutions:  1
+ 0.013391396279608317x(1,2) + 0.021043622725098788x(3,2) + 0.0049085005160218855x(3,3) + 0.0049085005160218785x(0,3) + 0.009061847106501866x(0,2) 
[(1, 2), (0, 1), (3, 2), (3, 3), (1, 0), (2, 1), (2, 0), (2, 3), (2, 2), (0, 3), (0, 2)]
cliques:  1 mip: 69
C:  34.99999650124572
x(0,0) = 1.07	 x(0,1) = 24.62	 x(0,2) = 15.53	 x(0,3) = 11.07	 
x(1,0) = 0.07	 x(1,1) = 8.53	 x(1,2) = 21.72	 x(1,3) = 1.07	 
x(2,0) = 34.00	 x(2,1) = 22.02	 x(2,2) = 18.18	 x(2,3) = 7.55	 
x(3,0) = 11.53	 x(3,1) = 1.53	 x(3,2) = 22.44	 x(3,3) = 8.53	 
y(0,1,0) = 0.00	 y(1,0,0) = 1.00	 
y(0,2,0) = 0.91	 y(2,0,0) = 0.09	 
y(0,3,0) = 0.97	 y(3,0,0) = 0.03	 
y(1,2,0) = 0.79	 y(2,1,0) = 0.21	 
y(1,3,0) = 0.91	 y(3,1,0) = 0.09	 
y(2,3,0) = 0.00	 y(3,2,0) = 1.00	 
y(0,1,1) = 0.00	 y(1,0,1) = 1.00	 
y(0,2,1) = 0.17	 y(2,0,1) = 0.83	 
y(0,3,1) = 0.00	 y(3,0,1) = 1.00	 
y(1,2,1) = 1.00	 y(2,1,1) = 0.00	 
y(1,3,1) = 0.00	 y(3,1,1) = 1.00	 
y(2,3,1) = 0.00	 y(3,2,1) = 1.00	 
y(0,1,2) = 1.00	 y(1,0,2) = 0.00	 
y(0,2,2) = 0.23	 y(2,0,2) = 0.77	 
y(0,3,2) = 1.00	 y(3,0,2) = 0.00	 
y(1,2,2) = 0.18	 y(2,1,2) = 0.82	 
y(1,3,2) = 0.71	 y(3,1,2) = 0.29	 
y(2,3,2) = 0.94	 y(3,2,2) = 0.06	 
y(0,1,3) = 0.04	 y(1,0,3) = 0.96	 
y(0,2,3) = 0.56	 y(2,0,3) = 0.44	 
y(0,3,3) = 0.03	 y(3,0,3) = 0.97	 
y(1,2,3) = 0.98	 y(2,1,3) = 0.02	 
y(1,3,3) = 0.97	 y(3,1,3) = 0.03	 
y(2,3,3) = 0.16	 y(3,2,3) = 0.84	 
obj:  1.007683405838457
erro
[(1, 2), (0, 1), (3, 2), (1, 0), (2, 1), (2, 0), (2, 3), (2, 2), (0, 3), (0, 2)]
cliques:  0 mip: 78
C:  34.99999650124572
x(0,0) = 1.07	 x(0,1) = 24.62	 x(0,2) = 15.53	 x(0,3) = 11.07	 
x(1,0) = 0.07	 x(1,1) = 8.53	 x(1,2) = 21.72	 x(1,3) = 1.07	 
x(2,0) = 34.00	 x(2,1) = 22.02	 x(2,2) = 18.18	 x(2,3) = 7.55	 
x(3,0) = 11.53	 x(3,1) = 1.53	 x(3,2) = 22.44	 x(3,3) = 8.53	 
y(0,1,0) = 0.00	 y(1,0,0) = 1.00	 
y(0,2,0) = 0.91	 y(2,0,0) = 0.09	 
y(0,3,0) = 0.97	 y(3,0,0) = 0.03	 
y(1,2,0) = 0.79	 y(2,1,0) = 0.21	 
y(1,3,0) = 0.91	 y(3,1,0) = 0.09	 
y(2,3,0) = 0.00	 y(3,2,0) = 1.00	 
y(0,1,1) = 0.00	 y(1,0,1) = 1.00	 
y(0,2,1) = 0.17	 y(2,0,1) = 0.83	 
y(0,3,1) = 0.00	 y(3,0,1) = 1.00	 
y(1,2,1) = 1.00	 y(2,1,1) = 0.00	 
y(1,3,1) = 0.00	 y(3,1,1) = 1.00	 
y(2,3,1) = 0.00	 y(3,2,1) = 1.00	 
y(0,1,2) = 1.00	 y(1,0,2) = 0.00	 
y(0,2,2) = 0.23	 y(2,0,2) = 0.77	 
y(0,3,2) = 1.00	 y(3,0,2) = 0.00	 
y(1,2,2) = 0.18	 y(2,1,2) = 0.82	 
y(1,3,2) = 0.71	 y(3,1,2) = 0.29	 
y(2,3,2) = 0.94	 y(3,2,2) = 0.06	 
y(0,1,3) = 0.04	 y(1,0,3) = 0.96	 
y(0,2,3) = 0.56	 y(2,0,3) = 0.44	 
y(0,3,3) = 0.03	 y(3,0,3) = 0.97	 
y(1,2,3) = 0.98	 y(2,1,3) = 0.02	 
y(1,3,3) = 0.97	 y(3,1,3) = 0.03	 
y(2,3,3) = 0.16	 y(3,2,3) = 0.84	 
obj:  1.007683405838457
erro
[(1, 2), (0, 1), (3, 2), (1, 0), (2, 1), (2, 0), (2, 3), (2, 2), (0, 3), (0, 2)]
cliques:  0 mip: 78
C:  34.99999650124572
x(0,0) = 1.07	 x(0,1) = 24.62	 x(0,2) = 15.53	 x(0,3) = 11.07	 
x(1,0) = 0.07	 x(1,1) = 8.53	 x(1,2) = 21.72	 x(1,3) = 1.07	 
x(2,0) = 34.00	 x(2,1) = 22.02	 x(2,2) = 18.18	 x(2,3) = 7.55	 
x(3,0) = 11.53	 x(3,1) = 1.53	 x(3,2) = 22.44	 x(3,3) = 8.53	 
y(0,1,0) = 0.00	 y(1,0,0) = 1.00	 
y(0,2,0) = 0.91	 y(2,0,0) = 0.09	 
y(0,3,0) = 0.97	 y(3,0,0) = 0.03	 
y(1,2,0) = 0.79	 y(2,1,0) = 0.21	 
y(1,3,0) = 0.91	 y(3,1,0) = 0.09	 
y(2,3,0) = 0.00	 y(3,2,0) = 1.00	 
y(0,1,1) = 0.00	 y(1,0,1) = 1.00	 
y(0,2,1) = 0.17	 y(2,0,1) = 0.83	 
y(0,3,1) = 0.00	 y(3,0,1) = 1.00	 
y(1,2,1) = 1.00	 y(2,1,1) = 0.00	 
y(1,3,1) = 0.00	 y(3,1,1) = 1.00	 
y(2,3,1) = 0.00	 y(3,2,1) = 1.00	 
y(0,1,2) = 1.00	 y(1,0,2) = 0.00	 
y(0,2,2) = 0.23	 y(2,0,2) = 0.77	 
y(0,3,2) = 1.00	 y(3,0,2) = 0.00	 
y(1,2,2) = 0.18	 y(2,1,2) = 0.82	 
y(1,3,2) = 0.71	 y(3,1,2) = 0.29	 
y(2,3,2) = 0.94	 y(3,2,2) = 0.06	 
y(0,1,3) = 0.04	 y(1,0,3) = 0.96	 
y(0,2,3) = 0.56	 y(2,0,3) = 0.44	 
y(0,3,3) = 0.03	 y(3,0,3) = 0.97	 
y(1,2,3) = 0.98	 y(2,1,3) = 0.02	 
y(1,3,3) = 0.97	 y(3,1,3) = 0.03	 
y(2,3,3) = 0.16	 y(3,2,3) = 0.84	 
obj:  1.007683405838457
erro
[(1, 2), (0, 1), (3, 2), (1, 0), (2, 1), (2, 0), (2, 3), (2, 2), (0, 3), (0, 2)]
cliques:  0 mip: 78
C:  34.99999650124572
x(0,0) = 1.07	 x(0,1) = 24.62	 x(0,2) = 15.53	 x(0,3) = 11.07	 
x(1,0) = 0.07	 x(1,1) = 8.53	 x(1,2) = 21.72	 x(1,3) = 1.07	 
x(2,0) = 34.00	 x(2,1) = 22.02	 x(2,2) = 18.18	 x(2,3) = 7.55	 
x(3,0) = 11.53	 x(3,1) = 1.53	 x(3,2) = 22.44	 x(3,3) = 8.53	 
y(0,1,0) = 0.00	 y(1,0,0) = 1.00	 
y(0,2,0) = 0.91	 y(2,0,0) = 0.09	 
y(0,3,0) = 0.97	 y(3,0,0) = 0.03	 
y(1,2,0) = 0.79	 y(2,1,0) = 0.21	 
y(1,3,0) = 0.91	 y(3,1,0) = 0.09	 
y(2,3,0) = 0.00	 y(3,2,0) = 1.00	 
y(0,1,1) = 0.00	 y(1,0,1) = 1.00	 
y(0,2,1) = 0.17	 y(2,0,1) = 0.83	 
y(0,3,1) = 0.00	 y(3,0,1) = 1.00	 
y(1,2,1) = 1.00	 y(2,1,1) = 0.00	 
y(1,3,1) = 0.00	 y(3,1,1) = 1.00	 
y(2,3,1) = 0.00	 y(3,2,1) = 1.00	 
y(0,1,2) = 1.00	 y(1,0,2) = 0.00	 
y(0,2,2) = 0.23	 y(2,0,2) = 0.77	 
y(0,3,2) = 1.00	 y(3,0,2) = 0.00	 
y(1,2,2) = 0.18	 y(2,1,2) = 0.82	 
y(1,3,2) = 0.71	 y(3,1,2) = 0.29	 
y(2,3,2) = 0.94	 y(3,2,2) = 0.06	 
y(0,1,3) = 0.04	 y(1,0,3) = 0.96	 
y(0,2,3) = 0.56	 y(2,0,3) = 0.44	 
y(0,3,3) = 0.03	 y(3,0,3) = 0.97	 
y(1,2,3) = 0.98	 y(2,1,3) = 0.02	 
y(1,3,3) = 0.97	 y(3,1,3) = 0.03	 
y(2,3,3) = 0.16	 y(3,2,3) = 0.84	 
obj:  1.007683405838457
erro
[(1, 2), (0, 1), (3, 2), (1, 0), (2, 1), (2, 0), (2, 3), (2, 2), (0, 3), (0, 2)]
cliques:  0 mip: 78
C:  34.99999650124572
x(0,0) = 1.07	 x(0,1) = 24.62	 x(0,2) = 15.53	 x(0,3) = 11.07	 
x(1,0) = 0.07	 x(1,1) = 8.53	 x(1,2) = 21.72	 x(1,3) = 1.07	 
x(2,0) = 34.00	 x(2,1) = 22.02	 x(2,2) = 18.18	 x(2,3) = 7.55	 
x(3,0) = 11.53	 x(3,1) = 1.53	 x(3,2) = 22.44	 x(3,3) = 8.53	 
y(0,1,0) = 0.00	 y(1,0,0) = 1.00	 
y(0,2,0) = 0.91	 y(2,0,0) = 0.09	 
y(0,3,0) = 0.97	 y(3,0,0) = 0.03	 
y(1,2,0) = 0.79	 y(2,1,0) = 0.21	 
y(1,3,0) = 0.91	 y(3,1,0) = 0.09	 
y(2,3,0) = 0.00	 y(3,2,0) = 1.00	 
y(0,1,1) = 0.00	 y(1,0,1) = 1.00	 
y(0,2,1) = 0.17	 y(2,0,1) = 0.83	 
y(0,3,1) = 0.00	 y(3,0,1) = 1.00	 
y(1,2,1) = 1.00	 y(2,1,1) = 0.00	 
y(1,3,1) = 0.00	 y(3,1,1) = 1.00	 
y(2,3,1) = 0.00	 y(3,2,1) = 1.00	 
y(0,1,2) = 1.00	 y(1,0,2) = 0.00	 
y(0,2,2) = 0.23	 y(2,0,2) = 0.77	 
y(0,3,2) = 1.00	 y(3,0,2) = 0.00	 
y(1,2,2) = 0.18	 y(2,1,2) = 0.82	 
y(1,3,2) = 0.71	 y(3,1,2) = 0.29	 
y(2,3,2) = 0.94	 y(3,2,2) = 0.06	 
y(0,1,3) = 0.04	 y(1,0,3) = 0.96	 
y(0,2,3) = 0.56	 y(2,0,3) = 0.44	 
y(0,3,3) = 0.03	 y(3,0,3) = 0.97	 
y(1,2,3) = 0.98	 y(2,1,3) = 0.02	 
y(1,3,3) = 0.97	 y(3,1,3) = 0.03	 
y(2,3,3) = 0.16	 y(3,2,3) = 0.84	 
obj:  1.007683405838457
erro
[(1, 2), (0, 1), (3, 2), (1, 0), (2, 1), (2, 0), (2, 3), (2, 2), (0, 3), (0, 2)]
cliques:  0 mip: 0
iterações: 15 cortes cliques encontrados: 6 mip: 1032 objective:  34.99999650124572
Coin0506I Presolve 157 (-171) rows, 90 (-71) columns and 490 (-260) elements
Clp1000I sum of infeasibilities 1.79124e-08 - average 1.14092e-10, 0 fixed columns
Coin0506I Presolve 157 (0) rows, 90 (0) columns and 490 (0) elements
Clp0029I End of values pass after 90 iterations
Clp0000I Optimal - objective value 29
Clp0000I Optimal - objective value 29
Coin0511I After Postsolve, objective 29, infeasibilities - dual 0 (0), primal 0 (0)
Clp0000I Optimal - objective value 29
Clp0000I Optimal - objective value 29
Clp0000I Optimal - objective value 29
Coin0511I After Postsolve, objective 29, infeasibilities - dual 0 (0), primal 0 (0)
Clp0032I Optimal objective 29 - 0 iterations time 0.012, Presolve 0.00, Idiot 0.01
Coin3009W Conflict graph built in 0.000 seconds, density: 0.096%
